Function: get_partitions took 1.9550323486328125e-05 seconds
Function: map_flows_partitions took 1.8596649169921875e-05 seconds
Building model with:
21 devices, 3 partitions and 20 flows
Using license file /home/anup/gurobi.lic
Academic license - for non-commercial use only
Function: MIP.add_frac_mem_var took 0.0006101131439208984 seconds
Function: MIP.add_coverage_constraints took 0.0009937286376953125 seconds
Function: MIP.add_accuracy_constraints took 0.0012030601501464844 seconds
Function: MIP.add_capacity_constraints took 0.0019249916076660156 seconds
Changed value of parameter TimeLimit to 120.0
   Prev: inf  Min: 0.0  Max: inf  Default: inf
--------------------------------------------------
Starting model update
Model update took: 0.0001697540283203125 s
--------------------------------------------------
Starting model optimize
Gurobi Optimizer version 9.0.0 build v9.0.0rc2 (linux64)
Optimize a model with 167 rows, 174 columns and 518 nonzeros
Model fingerprint: 0x57b1162e
Model has 4 general constraints
Variable types: 111 continuous, 63 integer (63 binary)
Coefficient statistics:
  Matrix range     [1e+00, 2e+00]
  Objective range  [1e+00, 1e+00]
  Bounds range     [1e+00, 3e+04]
  RHS range        [1e+00, 1e+00]

---------------------------------------------------------------------------
Multi-objectives: starting optimization with 8 objectives ... 
---------------------------------------------------------------------------

Multi-objectives: applying initial presolve ...
---------------------------------------------------------------------------

Presolve removed 45 rows and 9 columns
Presolve time: 0.00s
Presolved: 122 rows and 165 columns
---------------------------------------------------------------------------

Multi-objectives: optimize objective 1 (tot_rows_CPU) ...
---------------------------------------------------------------------------

Presolve removed 20 rows and 20 columns
Presolve time: 0.00s
Presolved: 102 rows, 145 columns, 420 nonzeros
Presolved model has 40 SOS constraint(s)
Variable types: 42 continuous, 103 integer (103 binary)

Root relaxation: objective 0.000000e+00, 67 iterations, 0.00 seconds

    Nodes    |    Current Node    |     Objective Bounds      |     Work
 Expl Unexpl |  Obj  Depth IntInf | Incumbent    BestBd   Gap | It/Node Time

H    0     0                       0.0000000    0.00000  0.00%     -    0s
     0     0    0.00000    0   20    0.00000    0.00000  0.00%     -    0s

Explored 0 nodes (67 simplex iterations) in 0.00 seconds
Thread count was 8 (of 8 available processors)

Solution count 1: 0 

Optimal solution found (tolerance 1.00e-04)
Best objective 0.000000000000e+00, best bound 0.000000000000e+00, gap 0.0000%
---------------------------------------------------------------------------

Multi-objectives: optimize objective 2 (CPU_rows_load) ...
---------------------------------------------------------------------------


Loaded user MIP start with objective 0


Explored 0 nodes (0 simplex iterations) in 0.00 seconds
Thread count was 1 (of 8 available processors)

Solution count 1: 0 

Optimal solution found (tolerance 1.00e-04)
Best objective 0.000000000000e+00, best bound 0.000000000000e+00, gap 0.0000%
---------------------------------------------------------------------------

Multi-objectives: optimize objective 3 (tot_rows_P4) ...
---------------------------------------------------------------------------


Loaded user MIP start with objective 40

Presolve removed 22 rows and 23 columns
Presolve time: 0.00s
Presolved: 102 rows, 142 columns, 360 nonzeros
Presolved model has 40 SOS constraint(s)
Variable types: 42 continuous, 100 integer (100 binary)

Root relaxation: objective 3.000000e+01, 58 iterations, 0.00 seconds

    Nodes    |    Current Node    |     Objective Bounds      |     Work
 Expl Unexpl |  Obj  Depth IntInf | Incumbent    BestBd   Gap | It/Node Time

     0     0   30.00000    0    2   40.00000   30.00000  25.0%     -    0s
H    0     0                      30.0000000   30.00000  0.00%     -    0s
     0     0   30.00000    0    2   30.00000   30.00000  0.00%     -    0s

Explored 1 nodes (58 simplex iterations) in 0.01 seconds
Thread count was 8 (of 8 available processors)

Solution count 2: 30 40 

Optimal solution found (tolerance 1.00e-04)
Best objective 3.000000000000e+01, best bound 3.000000000000e+01, gap 0.0000%
---------------------------------------------------------------------------

Multi-objectives: optimize objective 4 (P4_rows_load) ...
---------------------------------------------------------------------------


Loaded user MIP start with objective 2

Presolve removed 2 rows and 3 columns
Presolve time: 0.00s
Presolved: 123 rows, 162 columns, 380 nonzeros
Presolved model has 40 SOS constraint(s)
Variable types: 42 continuous, 120 integer (100 binary)

Root relaxation: objective 1.500000e+00, 67 iterations, 0.00 seconds

    Nodes    |    Current Node    |     Objective Bounds      |     Work
 Expl Unexpl |  Obj  Depth IntInf | Incumbent    BestBd   Gap | It/Node Time

     0     0    1.50000    0   40    2.00000    1.50000  25.0%     -    0s

Cutting planes:
  Gomory: 3

Explored 1 nodes (103 simplex iterations) in 0.02 seconds
Thread count was 8 (of 8 available processors)

Solution count 1: 2 

Optimal solution found (tolerance 1.00e-04)
Best objective 2.000000000000e+00, best bound 2.000000000000e+00, gap 0.0000%
---------------------------------------------------------------------------

Multi-objectives: optimize objective 5 (tot_mem_CPU) ...
---------------------------------------------------------------------------


Loaded user MIP start with objective 0


Explored 0 nodes (0 simplex iterations) in 0.02 seconds
Thread count was 1 (of 8 available processors)

Solution count 1: 0 

Optimal solution found (tolerance 1.00e-04)
Best objective 0.000000000000e+00, best bound 0.000000000000e+00, gap 0.0000%
---------------------------------------------------------------------------

Multi-objectives: optimize objective 6 (CPU_load_mem) ...
---------------------------------------------------------------------------


Loaded user MIP start with objective 0


Explored 0 nodes (0 simplex iterations) in 0.02 seconds
Thread count was 1 (of 8 available processors)

Solution count 1: 0 

Optimal solution found (tolerance 1.00e-04)
Best objective 0.000000000000e+00, best bound 0.000000000000e+00, gap 0.0000%
---------------------------------------------------------------------------

Multi-objectives: optimize objective 7 (tot_mem_P4) ...
---------------------------------------------------------------------------


Loaded user MIP start with objective 50.9766

Presolve added 15 rows and 0 columns
Presolve removed 0 rows and 3 columns
Presolve time: 0.00s
Presolved: 143 rows, 162 columns, 420 nonzeros
Presolved model has 20 SOS constraint(s)
Variable types: 42 continuous, 120 integer (100 binary)

Root relaxation: cutoff, 115 iterations, 0.00 seconds

    Nodes    |    Current Node    |     Objective Bounds      |     Work
 Expl Unexpl |  Obj  Depth IntInf | Incumbent    BestBd   Gap | It/Node Time

     0     0     cutoff    0        50.97656   50.97656  0.00%     -    0s

Explored 0 nodes (115 simplex iterations) in 0.02 seconds
Thread count was 8 (of 8 available processors)

Solution count 1: 50.9766 

Optimal solution found (tolerance 1.00e-04)
Best objective 5.097656250000e+01, best bound 5.097656250000e+01, gap 0.0000%
---------------------------------------------------------------------------

Multi-objectives: optimize objective 8 (P4_load_mem) ...
---------------------------------------------------------------------------


Loaded user MIP start with objective 3.39844

Presolve added 14 rows and 0 columns
Presolve removed 0 rows and 3 columns
Presolve time: 0.00s
Presolved: 143 rows, 162 columns, 420 nonzeros
Presolved model has 20 SOS constraint(s)
Variable types: 42 continuous, 120 integer (100 binary)

Root relaxation: objective 2.548828e+00, 125 iterations, 0.00 seconds

    Nodes    |    Current Node    |     Objective Bounds      |     Work
 Expl Unexpl |  Obj  Depth IntInf | Incumbent    BestBd   Gap | It/Node Time

     0     0    2.54883    0   40    3.39844    2.54883  25.0%     -    0s

Cutting planes:
  Gomory: 22
  RLT: 20
  Relax-and-lift: 20

Explored 1 nodes (127 simplex iterations) in 0.03 seconds
Thread count was 8 (of 8 available processors)

Solution count 1: 3.39844 

Optimal solution found (tolerance 1.00e-04)
Best objective 3.398437500000e+00, best bound 3.398437500000e+00, gap 0.0000%

---------------------------------------------------------------------------
Multi-objectives: solved in 0.03 seconds, solution count 2

Model optimize took: 0.030801773071289062 seconds
--------------------------------------------------

Solution quality statistics for model UnivmonGreedyRows :
  Maximum violation:
    Bound       : 0.00000000e+00
    Constraint  : 1.33226763e-15
    Integrality : 0.00000000e+00

Sketch (0) (cm: eps0: 0.00625, del0: 0.05, min_mem: 1.69921875)
Par: 1, Rows: 1
(1.000,18)    (-0.000,3)    (1.000,8)    (1.000,14)    (-0.000,19)    (1.000,4)    (-0.000,9)    (-0.000,15)    (0.000,20)    (-0.000,5)    (1.000,10)    (1.000,0)    (1.000,6)    (-0.000,11)    (1.000,16)    (-0.000,1)    (-0.000,7)    (1.000,12)    (-0.000,17)    (1.000,2)    (-0.000,13)    
Total frac: 10.000
Par: 2, Rows: 1
(-0.000,12)    (1.000,9)    (-0.000,2)    (1.000,15)    (1.000,5)    (-0.000,18)    (-0.000,8)    (-0.000,14)    (1.000,11)    (-0.000,4)    (1.000,1)    (1.000,7)    (0.000,20)    (1.000,17)    (-0.000,10)    (-0.000,0)    (1.000,13)    (-0.000,6)    (1.000,3)    (-0.000,16)    (1.000,19)    
Total frac: 10.000
Par: 3, Rows: 1
(1.000,11)    (-0.000,16)    (-0.000,6)    (1.000,7)    (1.000,1)    (-0.000,12)    (1.000,17)    (-0.000,2)    (1.000,3)    (1.000,13)    (-0.000,8)    (-0.000,18)    (1.000,19)    (-0.000,4)    (-0.000,14)    (1.000,15)    (1.000,9)    (0.000,20)    (1.000,5)    (-0.000,0)    (-0.000,10)    
Total frac: 10.000

Device (0) P4_0:
Rows total: 1.0
Mem total: 1.69921875

Device (1) P4_1:
Rows total: 2.0
Mem total: 3.3984375

Device (2) P4_2:
Rows total: 1.0
Mem total: 1.69921875

Device (3) P4_3:
Rows total: 2.0
Mem total: 3.3984375

Device (4) P4_4:
Rows total: 1.0
Mem total: 1.69921875

Device (5) P4_5:
Rows total: 2.0
Mem total: 3.3984375

Device (6) P4_6:
Rows total: 1.0
Mem total: 1.69921875

Device (7) P4_7:
Rows total: 2.0
Mem total: 3.3984375

Device (8) P4_8:
Rows total: 1.0
Mem total: 1.69921875

Device (9) P4_9:
Rows total: 2.0
Mem total: 3.3984375

Device (10) P4_10:
Rows total: 1.0
Mem total: 1.69921875

Device (11) P4_11:
Rows total: 2.0
Mem total: 3.3984375

Device (12) P4_12:
Rows total: 1.0
Mem total: 1.69921875

Device (13) P4_13:
Rows total: 2.0
Mem total: 3.3984375

Device (14) P4_14:
Rows total: 1.0
Mem total: 1.69921875

Device (15) P4_15:
Rows total: 2.0
Mem total: 3.3984375

Device (16) P4_16:
Rows total: 1.0
Mem total: 1.69921875

Device (17) P4_17:
Rows total: 2.0
Mem total: 3.3984375

Device (18) P4_18:
Rows total: 1.0
Mem total: 1.69921875

Device (19) P4_19:
Rows total: 2.0
Mem total: 3.3984375

Device (20) CPU_1:
Rows total: 0.0
Mem total: 0.0
--------------------------------------------------
Changed value of parameter NonConvex to 2
   Prev: -1  Min: -1  Max: 2  Default: -1

Throughput: 97.99999999999999 Mpps, ns per packet: 10.204081632653063
Resources: 78.56201171874973
Used Cores: 6.999999999999973, Total CPUS: 1, Switch Memory: 50.9765625

Sketch (0) (cm: eps0: 0.00625, del0: 0.05, min_mem: 1.69921875)
Par: 1, Rows: 1
(1.000,18)    (-0.000,3)    (1.000,8)    (1.000,14)    (-0.000,19)    (1.000,4)    (-0.000,9)    (-0.000,15)    (0.000,20)    (-0.000,5)    (1.000,10)    (1.000,0)    (1.000,6)    (-0.000,11)    (1.000,16)    (-0.000,1)    (-0.000,7)    (1.000,12)    (-0.000,17)    (1.000,2)    (-0.000,13)    
Total frac: 10.000
Par: 2, Rows: 1
(-0.000,12)    (1.000,9)    (-0.000,2)    (1.000,15)    (1.000,5)    (-0.000,18)    (-0.000,8)    (-0.000,14)    (1.000,11)    (-0.000,4)    (1.000,1)    (1.000,7)    (0.000,20)    (1.000,17)    (-0.000,10)    (-0.000,0)    (1.000,13)    (-0.000,6)    (1.000,3)    (-0.000,16)    (1.000,19)    
Total frac: 10.000
Par: 3, Rows: 1
(1.000,11)    (-0.000,16)    (-0.000,6)    (1.000,7)    (1.000,1)    (-0.000,12)    (1.000,17)    (-0.000,2)    (1.000,3)    (1.000,13)    (-0.000,8)    (-0.000,18)    (1.000,19)    (-0.000,4)    (-0.000,14)    (1.000,15)    (1.000,9)    (0.000,20)    (1.000,5)    (-0.000,0)    (-0.000,10)    
Total frac: 10.000

Device (0) P4_0:
Rows total: 1.0
Mem total: 1.69921875
Throughput: 148.0

Device (1) P4_1:
Rows total: 2.0
Mem total: 3.3984375
Throughput: 148.0

Device (2) P4_2:
Rows total: 1.0
Mem total: 1.69921875
Throughput: 148.0

Device (3) P4_3:
Rows total: 2.0
Mem total: 3.3984375
Throughput: 148.0

Device (4) P4_4:
Rows total: 1.0
Mem total: 1.69921875
Throughput: 148.0

Device (5) P4_5:
Rows total: 2.0
Mem total: 3.3984375
Throughput: 148.0

Device (6) P4_6:
Rows total: 1.0
Mem total: 1.69921875
Throughput: 148.0

Device (7) P4_7:
Rows total: 2.0
Mem total: 3.3984375
Throughput: 148.0

Device (8) P4_8:
Rows total: 1.0
Mem total: 1.69921875
Throughput: 148.0

Device (9) P4_9:
Rows total: 2.0
Mem total: 3.3984375
Throughput: 148.0

Device (10) P4_10:
Rows total: 1.0
Mem total: 1.69921875
Throughput: 148.0

Device (11) P4_11:
Rows total: 2.0
Mem total: 3.3984375
Throughput: 148.0

Device (12) P4_12:
Rows total: 1.0
Mem total: 1.69921875
Throughput: 148.0

Device (13) P4_13:
Rows total: 2.0
Mem total: 3.3984375
Throughput: 148.0

Device (14) P4_14:
Rows total: 1.0
Mem total: 1.69921875
Throughput: 148.0

Device (15) P4_15:
Rows total: 2.0
Mem total: 3.3984375
Throughput: 148.0

Device (16) P4_16:
Rows total: 1.0
Mem total: 1.69921875
Throughput: 148.0

Device (17) P4_17:
Rows total: 2.0
Mem total: 3.3984375
Throughput: 148.0

Device (18) P4_18:
Rows total: 1.0
Mem total: 1.69921875
Throughput: 148.0

Device (19) P4_19:
Rows total: 2.0
Mem total: 3.3984375
Throughput: 148.0

Device (20) CPU_1:
cores_sketch: 0.0, cores_dpdk: 6.999999999999973
Rows total: 0
Mem total: 0.0
Throughput: 97.99999999999999
--------------------------------------------------
Function: MIP.solve took 0.05810189247131348 seconds
Function: solve took 0.05853533744812012 seconds
